language ESSENCE' 1.0
$ loaded file: carseqdata/csplib-instance-52
letting numcars=200
letting numclasses=28
letting numoptions=5
letting optMax=[1, 2, 1, 2, 1]
letting windowSize=[2, 3, 3, 5, 5]
letting numberPerClass=[1, 1, 3, 2, 20, 1, 2, 1, 2, 13, 1, 9, 17, 3, 37, 3, 6, 7, 5, 9, 21, 4, 1, 5, 2, 2, 3, 19]
letting optionsRequired=[[0, 1, 1, 0, 1], [1, 1, 1, 1, 0], [1, 0, 0, 0, 1], [1, 0, 1, 0, 1], [0, 0, 0, 1, 0], [1, 1, 1, 0, 1], [0, 1, 0, 1, 1], [1, 0, 1, 1, 1], [1, 1, 0, 1, 0], [0, 1, 0, 1, 0], [0, 0, 1, 0, 1], [1, 0, 0, 1, 0], [0, 0, 1, 0, 0], [1, 1, 1, 0, 0], [0, 1, 0, 0, 0], [0, 0, 1, 1, 0], [1, 0, 1, 0, 0], [0, 1, 1, 0, 0], [1, 1, 0, 0, 1], [0, 0, 0, 0, 1], [1, 0, 0, 0, 0], [1, 0, 0, 1, 1], [0, 1, 0, 0, 1], [0, 1, 1, 1, 0], [0, 0, 0, 1, 0], [0, 1, 1, 0, 0], [1, 0, 0, 0, 0], [1, 0, 0, 0, 0]]
